S = 18;
P = 15;
Start = [8, 0, 15, 11, 14, 1, 13, 9, 0, 7, 4, 10, 2, 0, 12, 5, 6, 3];
Goal = [11, 13, 0, 8, 2, 1, 6, 0, 3, 10, 15, 5, 4, 14, 0, 7, 9, 12];
Can_swap = [false, true, false, true, true, true, false, false, false, false, false, false, true, true, true];
